<number of tasks>
70

<cycle time>
185

<task times>
1 17
2 66
3 54
4 52
5 6
6 88
7 21
8 128
9 68
10 70
11 85
12 21
13 134
14 135
15 94
16 90
17 50
18 143
19 19
20 54
21 50
22 40
23 73
24 12
25 152
26 42
27 45
28 74
29 26
30 11
31 31
32 50
33 102
34 46
35 35
36 40
37 2
38 1
39 3
40 13
41 16
42 25
43 21
44 43
45 30
46 83
47 89
48 56
49 59
50 43
51 11
52 26
53 44
54 121
55 38
56 68
57 22
58 7
59 16
60 32
61 25
62 27
63 156
64 28
65 15
66 26
67 18
68 72
69 23
70 27

<precedence relations>
1,2
1,41
1,69
1,70
2,3
3,4
3,68
4,6
4,7
5,6
5,24
5,30
6,8
7,8
8,12
9,10
10,11
11,12
12,13
12,14
13,23
14,23
15,16
16,17
16,18
17,19
18,19
19,20
19,22
19,57
20,21
21,23
22,23
23,25
23,31
23,33
24,25
25,26
25,27
25,28
25,29
26,35
27,35
28,35
29,35
30,31
31,32
32,35
33,34
34,35
35,36
35,44
35,48
35,51
35,53
35,56
35,60
35,61
35,62
36,37
37,38
38,39
39,40
40,42
41,42
42,43
43,50
44,45
45,46
46,47
47,50
48,49
49,50
51,52
52,54
53,54
54,55
57,58
58,59
59,60
61,65
62,63
63,64
64,65
64,66
64,67

<setup times forward>
1,9:15
1,10:5
1,11:8
1,15:15
1,16:5
1,17:4
1,20:5
1,21:5
1,22:13
1,58:13
1,59:8
1,69:15
1,70:8
2,9:15
2,10:5
2,11:8
2,15:15
2,16:5
2,17:4
2,20:5
2,21:5
2,22:13
2,58:13
2,59:8
2,69:15
2,70:8
3,4:5
3,9:15
3,10:5
3,11:8
3,15:15
3,16:5
3,17:4
3,20:5
3,21:5
3,22:13
3,58:13
3,59:8
3,68:8
3,69:15
3,70:8
4,5:5
4,9:20
4,10:10
4,11:3
4,15:20
4,16:10
4,17:9
4,18:5
4,19:5
4,22:8
4,24:5
4,30:5
4,41:5
4,57:5
4,58:8
4,59:13
4,68:3
4,69:20
4,70:13
5,4:5
5,6:5
5,7:5
5,9:15
5,10:5
5,11:8
5,15:15
5,16:5
5,17:4
5,20:5
5,21:5
5,22:13
5,58:13
5,59:8
5,68:8
5,69:15
5,70:8
6,8:9
6,9:20
6,10:10
6,11:3
6,15:20
6,16:10
6,17:9
6,18:5
6,19:5
6,22:8
6,24:5
6,30:5
6,41:5
6,57:5
6,58:8
6,59:13
6,68:3
6,69:20
6,70:13
7,5:5
7,8:9
7,9:20
7,10:10
7,11:3
7,15:20
7,16:10
7,17:9
7,18:5
7,19:5
7,22:8
7,24:5
7,30:5
7,41:5
7,57:5
7,58:8
7,59:13
7,68:3
7,69:20
7,70:13
8,9:11
8,10:1
8,11:12
8,12:12
8,15:11
8,16:1
8,18:4
8,19:4
8,20:9
8,21:9
8,22:17
8,24:4
8,30:4
8,41:4
8,57:4
8,58:17
8,59:4
8,68:12
8,69:11
8,70:4
9,1:15
9,2:15
9,3:15
9,4:20
9,5:15
9,6:20
9,7:20
9,8:11
9,10:10
9,16:10
9,17:11
9,18:15
9,19:15
9,20:20
9,21:20
9,22:28
9,24:15
9,30:15
9,41:15
9,57:15
9,58:28
9,59:7
9,68:23
9,70:7
10,1:5
10,2:5
10,3:5
10,4:10
10,5:5
10,6:10
10,7:10
10,8:1
10,11:13
10,15:10
10,17:1
10,18:5
10,19:5
10,20:10
10,21:10
10,22:18
10,24:5
10,30:5
10,41:5
10,57:5
10,58:18
10,59:3
10,68:13
10,69:10
10,70:3
11,1:8
11,2:8
11,3:8
11,4:3
11,5:8
11,6:3
11,7:3
11,8:12
11,15:23
11,16:13
11,17:12
11,18:8
11,19:8
11,20:3
11,21:3
11,22:5
11,24:8
11,30:8
11,41:8
11,57:8
11,58:5
11,59:16
11,69:23
11,70:16
12,13:16
12,14:5
12,15:23
12,16:13
12,17:12
12,18:8
12,19:8
12,20:3
12,21:3
12,22:5
12,24:8
12,30:8
12,41:8
12,57:8
12,58:5
12,59:16
12,69:23
12,70:16
13,14:21
13,15:7
13,16:3
13,17:4
13,18:8
13,19:8
13,20:13
13,21:13
13,22:21
13,23:13
13,24:8
13,30:8
13,41:8
13,57:8
13,58:21
13,68:16
13,69:7
14,13:21
14,15:28
14,16:18
14,17:17
14,18:13
14,19:13
14,20:8
14,21:8
14,23:8
14,24:13
14,30:13
14,41:13
14,57:13
14,59:21
14,68:5
14,69:28
14,70:21
15,1:15
15,2:15
15,3:15
15,4:20
15,5:15
15,6:20
15,7:20
15,8:11
15,10:10
15,11:23
15,12:23
15,13:7
15,14:28
15,16:10
15,24:15
15,30:15
15,41:15
15,68:23
15,70:7
16,1:5
16,2:5
16,3:5
16,4:10
16,5:5
16,6:10
16,7:10
16,8:1
16,9:10
16,11:13
16,12:13
16,13:3
16,14:18
16,17:1
16,18:5
16,24:5
16,30:5
16,41:5
16,68:13
16,69:10
16,70:3
17,1:4
17,2:4
17,3:4
17,4:9
17,5:4
17,6:9
17,7:9
17,9:11
17,10:1
17,11:12
17,12:12
17,13:4
17,14:17
17,18:4
17,19:4
17,24:4
17,30:4
17,41:4
17,68:12
17,69:11
17,70:4
18,4:5
18,6:5
18,7:5
18,8:4
18,9:15
18,10:5
18,11:8
18,12:8
18,13:8
18,14:13
18,17:4
18,68:8
18,69:15
18,70:8
19,4:5
19,6:5
19,7:5
19,8:4
19,9:15
19,10:5
19,11:8
19,12:8
19,13:8
19,14:13
19,20:5
19,22:13
19,68:8
19,69:15
19,70:8
20,1:5
20,2:5
20,3:5
20,5:5
20,8:9
20,9:20
20,10:10
20,11:3
20,12:3
20,13:13
20,14:8
20,22:8
20,24:5
20,30:5
20,41:5
20,57:5
20,58:8
20,59:13
20,68:3
20,69:20
20,70:13
21,1:5
21,2:5
21,3:5
21,5:5
21,8:9
21,9:20
21,10:10
21,11:3
21,12:3
21,13:13
21,14:8
21,22:8
21,24:5
21,30:5
21,41:5
21,57:5
21,58:8
21,59:13
21,68:3
21,69:20
21,70:13
22,1:13
22,2:13
22,3:13
22,4:8
22,5:13
22,6:8
22,7:8
22,8:17
22,9:28
22,10:18
22,11:5
22,12:5
22,13:21
22,20:8
22,21:8
22,23:8
22,24:13
22,30:13
22,41:13
22,57:13
22,59:21
22,68:5
22,69:28
22,70:21
23,24:5
23,25:12
23,30:5
23,31:12
23,33:3
23,41:5
23,57:5
23,58:8
23,59:13
23,68:3
23,69:20
23,70:13
24,4:5
24,6:5
24,7:5
24,8:4
24,9:15
24,10:5
24,11:8
24,12:8
24,13:8
24,14:13
24,15:15
24,16:5
24,17:4
24,20:5
24,21:5
24,22:13
24,23:5
24,25:17
24,31:17
24,32:4
24,33:2
24,34:4
24,58:13
24,59:8
24,68:8
24,69:15
24,70:8
25,26:21
25,27:21
25,28:15
25,29:28
25,30:17
25,32:21
25,33:15
25,34:21
25,41:17
25,57:17
25,58:4
25,59:25
25,68:9
25,69:32
25,70:25
26,28:6
26,29:7
26,30:4
26,31:21
26,33:6
26,35:7
26,41:4
26,57:4
26,58:17
26,59:4
26,68:12
26,69:11
26,70:4
27,28:6
27,29:7
27,30:4
27,31:21
27,33:6
27,35:7
27,41:4
27,57:4
27,58:17
27,59:4
27,68:12
27,69:11
27,70:4
28,26:6
28,27:6
28,29:13
28,30:2
28,31:15
28,32:6
28,34:6
28,35:13
28,41:2
28,57:2
28,58:11
28,59:10
28,68:6
28,69:17
28,70:10
29,26:7
29,27:7
29,28:13
29,30:11
29,31:28
29,32:7
29,33:13
29,34:7
29,41:11
29,57:11
29,58:24
29,59:3
29,68:19
29,69:4
29,70:3
30,4:5
30,6:5
30,7:5
30,8:4
30,9:15
30,10:5
30,11:8
30,12:8
30,13:8
30,14:13
30,15:15
30,16:5
30,17:4
30,20:5
30,21:5
30,22:13
30,23:5
30,25:17
30,26:4
30,27:4
30,28:2
30,29:11
30,31:17
30,33:2
30,34:4
30,58:13
30,59:8
30,68:8
30,69:15
30,70:8
31,24:17
31,26:21
31,27:21
31,28:15
31,29:28
31,32:21
31,33:15
31,34:21
31,41:17
31,57:17
31,58:4
31,59:25
31,68:9
31,69:32
31,70:25
32,24:4
32,25:21
32,28:6
32,29:7
32,33:6
32,35:7
32,41:4
32,57:4
32,58:17
32,59:4
32,68:12
32,69:11
32,70:4
33,24:2
33,25:15
33,26:6
33,27:6
33,29:13
33,30:2
33,31:15
33,32:6
33,34:6
33,41:2
33,57:2
33,58:11
33,59:10
33,68:6
33,69:17
33,70:10
34,24:4
34,25:21
34,28:6
34,29:7
34,30:4
34,31:21
34,35:7
34,41:4
34,57:4
34,58:17
34,59:4
34,68:12
34,69:11
34,70:4
35,36:7
35,41:11
35,48:28
35,53:28
35,56:14
35,57:11
35,58:24
35,59:3
35,60:7
35,61:7
35,68:19
35,69:4
35,70:3
36,41:4
36,44:7
36,45:7
36,46:21
36,47:7
36,48:21
36,49:10
36,51:7
36,52:23
36,53:21
36,54:10
36,55:7
36,56:7
36,57:4
36,58:17
36,59:4
36,62:7
36,63:23
36,64:7
36,65:7
36,66:7
36,68:12
36,69:11
36,70:4
37,38:7
37,41:4
37,44:7
37,45:7
37,46:21
37,47:7
37,48:21
37,49:10
37,51:7
37,52:23
37,53:21
37,54:10
37,55:7
37,56:7
37,57:4
37,58:17
37,59:4
37,62:7
37,63:23
37,64:7
37,65:7
37,66:7
37,68:12
37,69:11
37,70:4
38,41:11
38,46:28
38,47:14
38,48:28
38,49:3
38,52:30
38,53:28
38,54:3
38,56:14
38,57:11
38,58:24
38,59:3
38,60:7
38,61:7
38,63:30
38,64:14
38,67:7
38,68:19
38,69:4
38,70:3
39,41:11
39,46:28
39,47:14
39,48:28
39,49:3
39,52:30
39,53:28
39,54:3
39,56:14
39,57:11
39,58:24
39,59:3
39,60:7
39,61:7
39,63:30
39,64:14
39,67:7
39,68:19
39,69:4
39,70:3
40,41:11
40,46:28
40,47:14
40,48:28
40,49:3
40,52:30
40,53:28
40,54:3
40,56:14
40,57:11
40,58:24
40,59:3
40,60:7
40,61:7
40,63:30
40,64:14
40,67:7
40,68:19
40,69:4
40,70:3
41,4:5
41,6:5
41,7:5
41,8:4
41,9:15
41,10:5
41,11:8
41,12:8
41,13:8
41,14:13
41,15:15
41,16:5
41,17:4
41,20:5
41,21:5
41,22:13
41,23:5
41,25:17
41,26:4
41,27:4
41,28:2
41,29:11
41,31:17
41,32:4
41,33:2
41,34:4
41,35:11
41,36:4
41,37:4
41,38:11
41,39:11
41,40:11
41,42:11
41,44:11
41,45:11
41,46:17
41,47:3
41,48:17
41,49:14
41,51:11
41,52:19
41,53:17
41,54:14
41,55:11
41,56:3
41,58:13
41,59:8
41,60:4
41,61:4
41,62:11
41,63:19
41,64:3
41,65:11
41,66:11
41,67:4
41,68:8
41,69:15
41,70:8
42,46:28
42,47:14
42,48:28
42,49:3
42,52:30
42,53:28
42,54:3
42,56:14
42,57:11
42,58:24
42,59:3
42,60:7
42,61:7
42,63:30
42,64:14
42,67:7
42,68:19
42,69:4
42,70:3
43,46:28
43,47:14
43,48:28
43,49:3
43,52:30
43,53:28
43,54:3
43,56:14
43,57:11
43,58:24
43,59:3
43,60:7
43,61:7
43,63:30
43,64:14
43,67:7
43,68:19
43,69:4
43,70:3
44,36:7
44,37:7
44,41:11
44,48:28
44,49:3
44,52:30
44,53:28
44,54:3
44,56:14
44,57:11
44,58:24
44,59:3
44,60:7
44,61:7
44,63:30
44,64:14
44,67:7
44,68:19
44,69:4
44,70:3
45,36:7
45,37:7
45,41:11
45,46:28
45,48:28
45,49:3
45,52:30
45,53:28
45,54:3
45,56:14
45,57:11
45,58:24
45,59:3
45,60:7
45,61:7
45,63:30
45,64:14
45,67:7
45,68:19
45,69:4
45,70:3
46,36:21
46,37:21
46,38:28
46,39:28
46,40:28
46,41:17
46,42:28
46,43:28
46,47:14
46,49:31
46,51:28
46,52:2
46,54:31
46,55:28
46,56:14
46,57:17
46,58:4
46,59:25
46,60:21
46,61:21
46,62:28
46,63:2
46,64:14
46,65:28
46,66:28
46,67:21
46,68:9
46,69:32
46,70:25
47,36:7
47,37:7
47,38:14
47,39:14
47,40:14
47,41:3
47,42:14
47,43:14
47,48:14
47,49:17
47,50:14
47,51:14
47,52:16
47,53:14
47,54:17
47,55:14
47,57:3
47,58:10
47,59:11
47,60:7
47,61:7
47,62:14
47,63:16
47,65:14
47,66:14
47,67:7
47,68:5
47,69:18
47,70:11
48,36:21
48,37:21
48,38:28
48,39:28
48,40:28
48,41:17
48,42:28
48,43:28
48,44:28
48,45:28
48,47:14
48,49:31
48,51:28
48,52:2
48,54:31
48,55:28
48,56:14
48,57:17
48,58:4
48,59:25
48,60:21
48,61:21
48,62:28
48,63:2
48,64:14
48,65:28
48,66:28
48,67:21
48,68:9
48,69:32
48,70:25
49,36:10
49,37:10
49,38:3
49,39:3
49,40:3
49,41:14
49,42:3
49,43:3
49,44:3
49,45:3
49,46:31
49,47:17
49,50:3
49,51:3
49,52:33
49,53:31
49,55:3
49,56:17
49,57:14
49,58:27
49,59:6
49,60:10
49,61:10
49,62:3
49,63:33
49,64:17
49,65:3
49,66:3
49,67:10
49,68:22
49,69:1
49,70:6
50,52:30
50,53:28
50,54:3
50,56:14
50,57:11
50,58:24
50,59:3
50,60:7
50,61:7
50,63:30
50,64:14
50,67:7
50,68:19
50,69:4
50,70:3
51,36:7
51,37:7
51,41:11
51,46:28
51,47:14
51,48:28
51,49:3
51,52:30
51,53:28
51,56:14
51,57:11
51,58:24
51,59:3
51,60:7
51,61:7
51,63:30
51,64:14
51,67:7
51,68:19
51,69:4
51,70:3
52,36:23
52,37:23
52,38:30
52,39:30
52,40:30
52,41:19
52,42:30
52,43:30
52,44:30
52,45:30
52,46:2
52,47:16
52,48:2
52,49:33
52,50:30
52,53:2
52,54:33
52,56:16
52,57:19
52,58:6
52,59:27
52,60:23
52,61:23
52,62:30
52,64:16
52,65:30
52,66:30
52,67:23
52,68:11
52,69:34
52,70:27
53,36:21
53,37:21
53,38:28
53,39:28
53,40:28
53,41:17
53,42:28
53,43:28
53,44:28
53,45:28
53,47:14
53,49:31
53,50:28
53,51:28
53,52:2
53,54:31
53,56:14
53,57:17
53,58:4
53,59:25
53,60:21
53,61:21
53,62:28
53,63:2
53,64:14
53,65:28
53,66:28
53,67:21
53,68:9
53,69:32
53,70:25
54,36:10
54,37:10
54,38:3
54,39:3
54,40:3
54,41:14
54,42:3
54,43:3
54,44:3
54,45:3
54,46:31
54,47:17
54,48:31
54,50:3
54,55:3
54,56:17
54,57:14
54,58:27
54,59:6
54,60:10
54,61:10
54,62:3
54,63:33
54,64:17
54,65:3
54,66:3
54,67:10
54,68:22
54,69:1
54,70:6
55,36:7
55,37:7
55,41:11
55,46:28
55,47:14
55,48:28
55,49:3
55,56:14
55,57:11
55,58:24
55,59:3
55,60:7
55,61:7
55,63:30
55,64:14
55,67:7
55,68:19
55,69:4
55,70:3
56,36:7
56,37:7
56,38:14
56,39:14
56,40:14
56,41:3
56,42:14
56,43:14
56,44:14
56,45:14
56,46:14
56,48:14
56,49:17
56,50:14
56,51:14
56,52:16
56,53:14
56,54:17
56,55:14
56,57:3
56,58:10
56,59:11
56,60:7
56,61:7
56,62:14
56,63:16
56,65:14
56,66:14
56,67:7
56,68:5
56,69:18
56,70:11
57,4:5
57,6:5
57,7:5
57,8:4
57,9:15
57,10:5
57,11:8
57,12:8
57,13:8
57,14:13
57,20:5
57,21:5
57,22:13
57,23:5
57,25:17
57,26:4
57,27:4
57,28:2
57,29:11
57,31:17
57,32:4
57,33:2
57,34:4
57,35:11
57,36:4
57,37:4
57,38:11
57,39:11
57,40:11
57,42:11
57,43:11
57,44:11
57,45:11
57,46:17
57,47:3
57,48:17
57,49:14
57,50:11
57,51:11
57,52:19
57,53:17
57,54:14
57,55:11
57,56:3
57,58:13
57,61:4
57,62:11
57,63:19
57,64:3
57,65:11
57,66:11
57,67:4
57,68:8
57,69:15
57,70:8
58,1:13
58,2:13
58,3:13
58,4:8
58,5:13
58,6:8
58,7:8
58,8:17
58,9:28
58,10:18
58,11:5
58,12:5
58,13:21
58,20:8
58,21:8
58,23:8
58,24:13
58,25:4
58,26:17
58,27:17
58,28:11
58,29:24
58,30:13
58,31:4
58,32:17
58,33:11
58,34:17
58,35:24
58,36:17
58,37:17
58,38:24
58,39:24
58,40:24
58,41:13
58,42:24
58,43:24
58,44:24
58,45:24
58,46:4
58,47:10
58,48:4
58,49:27
58,50:24
58,51:24
58,52:6
58,53:4
58,54:27
58,55:24
58,56:10
58,59:21
58,61:17
58,62:24
58,63:6
58,64:10
58,65:24
58,66:24
58,67:17
58,68:5
58,69:28
58,70:21
59,1:8
59,2:8
59,3:8
59,4:13
59,5:8
59,6:13
59,7:13
59,8:4
59,9:7
59,10:3
59,11:16
59,12:16
59,14:21
59,20:13
59,21:13
59,22:21
59,23:13
59,24:8
59,25:25
59,26:4
59,27:4
59,28:10
59,29:3
59,30:8
59,31:25
59,32:4
59,33:10
59,34:4
59,35:3
59,36:4
59,37:4
59,38:3
59,39:3
59,40:3
59,41:8
59,42:3
59,43:3
59,44:3
59,45:3
59,46:25
59,47:11
59,48:25
59,49:6
59,50:3
59,51:3
59,52:27
59,53:25
59,54:6
59,55:3
59,56:11
59,60:4
59,61:4
59,62:3
59,63:27
59,64:11
59,65:3
59,66:3
59,67:4
59,68:16
59,69:7
60,38:7
60,39:7
60,40:7
60,41:4
60,42:7
60,43:7
60,44:7
60,45:7
60,46:21
60,47:7
60,48:21
60,49:10
60,50:7
60,51:7
60,52:23
60,53:21
60,54:10
60,55:7
60,56:7
60,62:7
60,63:23
60,64:7
60,65:7
60,66:7
60,68:12
60,69:11
60,70:4
61,38:7
61,39:7
61,40:7
61,41:4
61,42:7
61,43:7
61,44:7
61,45:7
61,46:21
61,47:7
61,48:21
61,49:10
61,50:7
61,51:7
61,52:23
61,53:21
61,54:10
61,55:7
61,56:7
61,57:4
61,58:17
61,59:4
61,62:7
61,63:23
61,64:7
61,65:7
61,66:7
61,68:12
61,69:11
61,70:4
62,36:7
62,37:7
62,41:11
62,46:28
62,47:14
62,48:28
62,49:3
62,52:30
62,53:28
62,54:3
62,56:14
62,57:11
62,58:24
62,59:3
62,60:7
62,61:7
62,63:30
62,68:19
62,69:4
62,70:3
63,36:23
63,37:23
63,38:30
63,39:30
63,40:30
63,41:19
63,42:30
63,43:30
63,44:30
63,45:30
63,46:2
63,47:16
63,48:2
63,49:33
63,50:30
63,51:30
63,53:2
63,54:33
63,55:30
63,56:16
63,57:19
63,58:6
63,59:27
63,60:23
63,61:23
63,64:16
63,68:11
63,69:34
63,70:27
64,36:7
64,37:7
64,38:14
64,39:14
64,40:14
64,41:3
64,42:14
64,43:14
64,44:14
64,45:14
64,46:14
64,48:14
64,49:17
64,50:14
64,51:14
64,52:16
64,53:14
64,54:17
64,55:14
64,57:3
64,58:10
64,59:11
64,60:7
64,61:7
64,65:14
64,66:14
64,67:7
64,68:5
64,69:18
64,70:11
65,36:7
65,37:7
65,41:11
65,46:28
65,47:14
65,48:28
65,49:3
65,52:30
65,53:28
65,54:3
65,56:14
65,57:11
65,58:24
65,59:3
65,60:7
65,67:7
65,68:19
65,69:4
65,70:3
66,36:7
66,37:7
66,41:11
66,46:28
66,47:14
66,48:28
66,49:3
66,52:30
66,53:28
66,54:3
66,56:14
66,57:11
66,58:24
66,59:3
66,60:7
66,61:7
66,67:7
66,68:19
66,69:4
66,70:3
67,38:7
67,39:7
67,40:7
67,41:4
67,42:7
67,43:7
67,44:7
67,45:7
67,46:21
67,47:7
67,48:21
67,49:10
67,50:7
67,51:7
67,52:23
67,53:21
67,54:10
67,55:7
67,56:7
67,57:4
67,58:17
67,59:4
67,65:7
67,66:7
67,68:12
67,69:11
67,70:4
68,4:3
68,5:8
68,6:3
68,7:3
68,8:12
68,9:23
68,10:13
68,13:16
68,14:5
68,15:23
68,16:13
68,17:12
68,18:8
68,19:8
68,20:3
68,21:3
68,22:5
68,23:3
68,24:8
68,25:9
68,26:12
68,27:12
68,28:6
68,29:19
68,30:8
68,31:9
68,32:12
68,33:6
68,34:12
68,35:19
68,36:12
68,37:12
68,38:19
68,39:19
68,40:19
68,41:8
68,42:19
68,43:19
68,44:19
68,45:19
68,46:9
68,47:5
68,48:9
68,49:22
68,50:19
68,51:19
68,52:11
68,53:9
68,54:22
68,55:19
68,56:5
68,57:8
68,58:5
68,59:16
68,60:12
68,61:12
68,62:19
68,63:11
68,64:5
68,65:19
68,66:19
68,67:12
68,69:23
68,70:16
69,2:15
69,3:15
69,4:20
69,5:15
69,6:20
69,7:20
69,8:11
69,10:10
69,11:23
69,12:23
69,13:7
69,14:28
69,16:10
69,17:11
69,18:15
69,19:15
69,20:20
69,21:20
69,22:28
69,23:20
69,24:15
69,25:32
69,26:11
69,27:11
69,28:17
69,29:4
69,30:15
69,31:32
69,32:11
69,33:17
69,34:11
69,35:4
69,36:11
69,37:11
69,38:4
69,39:4
69,40:4
69,41:15
69,42:4
69,43:4
69,44:4
69,45:4
69,46:32
69,47:18
69,48:32
69,49:1
69,50:4
69,51:4
69,52:34
69,53:32
69,54:1
69,55:4
69,56:18
69,57:15
69,58:28
69,59:7
69,60:11
69,61:11
69,62:4
69,63:34
69,64:18
69,65:4
69,66:4
69,67:11
69,68:23
69,70:7
70,2:8
70,3:8
70,4:13
70,5:8
70,6:13
70,7:13
70,8:4
70,9:7
70,10:3
70,11:16
70,12:16
70,14:21
70,15:7
70,16:3
70,17:4
70,18:8
70,19:8
70,20:13
70,21:13
70,22:21
70,23:13
70,24:8
70,25:25
70,26:4
70,27:4
70,28:10
70,29:3
70,30:8
70,31:25
70,32:4
70,33:10
70,34:4
70,35:3
70,36:4
70,37:4
70,38:3
70,39:3
70,40:3
70,41:8
70,42:3
70,43:3
70,44:3
70,45:3
70,46:25
70,47:11
70,48:25
70,49:6
70,50:3
70,51:3
70,52:27
70,53:25
70,54:6
70,55:3
70,56:11
70,57:8
70,58:21
70,60:4
70,61:4
70,62:3
70,63:27
70,64:11
70,65:3
70,66:3
70,67:4
70,68:16
70,69:7

<setup times backward>
1,11:8
1,20:5
1,21:5
1,22:13
1,58:13
2,11:8
2,20:5
2,21:5
2,22:13
2,58:13
3,11:8
3,20:5
3,21:5
3,22:13
3,58:13
4,11:3
4,22:8
4,58:8
4,68:3
5,4:5
5,7:5
5,11:8
5,20:5
5,21:5
5,22:13
5,58:13
5,68:8
6,11:3
6,22:8
6,58:8
6,68:3
7,11:3
7,22:8
7,58:8
7,68:3
8,1:4
8,2:4
8,3:4
8,4:9
8,5:4
8,6:9
8,7:9
8,11:12
8,18:4
8,19:4
8,20:9
8,21:9
8,22:17
8,24:4
8,30:4
8,41:4
8,57:4
8,58:17
8,68:12
9,1:15
9,2:15
9,3:15
9,4:20
9,5:15
9,6:20
9,7:20
9,8:11
9,16:10
9,17:11
9,18:15
9,19:15
9,20:20
9,21:20
9,22:28
9,24:15
9,30:15
9,41:15
9,57:15
9,58:28
9,59:7
9,68:23
9,70:7
10,1:5
10,2:5
10,3:5
10,4:10
10,5:5
10,6:10
10,7:10
10,8:1
10,17:1
10,18:5
10,19:5
10,20:10
10,21:10
10,22:18
10,24:5
10,30:5
10,41:5
10,57:5
10,58:18
10,68:13
11,22:5
11,58:5
12,22:5
12,58:5
13,1:8
13,2:8
13,3:8
13,4:13
13,5:8
13,6:13
13,7:13
13,8:4
13,10:3
13,11:16
13,12:16
13,14:21
13,16:3
13,17:4
13,18:8
13,19:8
13,20:13
13,21:13
13,22:21
13,24:8
13,30:8
13,41:8
13,57:8
13,58:21
13,68:16
15,1:15
15,2:15
15,3:15
15,4:20
15,5:15
15,6:20
15,7:20
15,8:11
15,10:10
15,11:23
15,12:23
15,13:7
15,14:28
15,24:15
15,30:15
15,41:15
15,68:23
15,70:7
16,1:5
16,2:5
16,3:5
16,4:10
16,5:5
16,6:10
16,7:10
16,8:1
16,11:13
16,12:13
16,14:18
16,24:5
16,30:5
16,41:5
16,68:13
17,1:4
17,2:4
17,3:4
17,4:9
17,5:4
17,6:9
17,7:9
17,11:12
17,12:12
17,14:17
17,18:4
17,24:4
17,30:4
17,41:4
17,68:12
18,4:5
18,6:5
18,7:5
18,11:8
18,12:8
18,14:13
18,68:8
19,4:5
19,6:5
19,7:5
19,11:8
19,12:8
19,14:13
19,68:8
20,11:3
20,12:3
20,14:8
20,22:8
20,58:8
20,68:3
21,11:3
21,12:3
21,14:8
21,22:8
21,58:8
21,68:3
23,11:3
23,12:3
23,14:8
23,22:8
23,58:8
23,68:3
24,4:5
24,6:5
24,7:5
24,11:8
24,12:8
24,14:13
24,20:5
24,21:5
24,22:13
24,23:5
24,31:17
24,33:2
24,58:13
24,68:8
26,1:4
26,2:4
26,3:4
26,4:9
26,5:4
26,6:9
26,7:9
26,11:12
26,12:12
26,14:17
26,18:4
26,19:4
26,20:9
26,21:9
26,22:17
26,23:9
26,24:4
26,25:21
26,28:6
26,30:4
26,31:21
26,33:6
26,41:4
26,57:4
26,58:17
26,68:12
27,1:4
27,2:4
27,3:4
27,4:9
27,5:4
27,6:9
27,7:9
27,11:12
27,12:12
27,14:17
27,18:4
27,19:4
27,20:9
27,21:9
27,22:17
27,23:9
27,24:4
27,25:21
27,28:6
27,30:4
27,31:21
27,33:6
27,41:4
27,57:4
27,58:17
27,68:12
28,4:3
28,6:3
28,7:3
28,11:6
28,12:6
28,14:11
28,20:3
28,21:3
28,22:11
28,23:3
28,25:15
28,31:15
28,58:11
28,68:6
29,1:11
29,2:11
29,3:11
29,4:16
29,5:11
29,6:16
29,7:16
29,8:7
29,10:6
29,11:19
29,12:19
29,13:3
29,14:24
29,16:6
29,17:7
29,18:11
29,19:11
29,20:16
29,21:16
29,22:24
29,23:16
29,24:11
29,25:28
29,26:7
29,27:7
29,28:13
29,30:11
29,31:28
29,32:7
29,33:13
29,34:7
29,41:11
29,57:11
29,58:24
29,59:3
29,68:19
29,70:3
30,4:5
30,6:5
30,7:5
30,11:8
30,12:8
30,14:13
30,20:5
30,21:5
30,22:13
30,23:5
30,25:17
30,28:2
30,33:2
30,58:13
30,68:8
32,1:4
32,2:4
32,3:4
32,4:9
32,5:4
32,6:9
32,7:9
32,11:12
32,12:12
32,14:17
32,18:4
32,19:4
32,20:9
32,21:9
32,22:17
32,23:9
32,24:4
32,25:21
32,28:6
32,30:4
32,31:21
32,33:6
32,41:4
32,57:4
32,58:17
32,68:12
33,4:3
33,6:3
33,7:3
33,11:6
33,12:6
33,14:11
33,20:3
33,21:3
33,22:11
33,23:3
33,25:15
33,31:15
33,58:11
33,68:6
34,1:4
34,2:4
34,3:4
34,4:9
34,5:4
34,6:9
34,7:9
34,11:12
34,12:12
34,14:17
34,18:4
34,19:4
34,20:9
34,21:9
34,22:17
34,23:9
34,24:4
34,25:21
34,28:6
34,30:4
34,31:21
34,33:6
34,41:4
34,57:4
34,58:17
34,68:12
35,1:11
35,2:11
35,3:11
35,4:16
35,5:11
35,6:16
35,7:16
35,8:7
35,10:6
35,11:19
35,12:19
35,13:3
35,14:24
35,16:6
35,17:7
35,18:11
35,19:11
35,20:16
35,21:16
35,22:24
35,23:16
35,24:11
35,25:28
35,26:7
35,27:7
35,28:13
35,30:11
35,31:28
35,32:7
35,33:13
35,34:7
35,41:11
35,57:11
35,58:24
35,59:3
35,68:19
35,70:3
36,1:4
36,2:4
36,3:4
36,4:9
36,5:4
36,6:9
36,7:9
36,11:12
36,12:12
36,14:17
36,18:4
36,19:4
36,20:9
36,21:9
36,22:17
36,23:9
36,24:4
36,25:21
36,28:6
36,30:4
36,31:21
36,33:6
36,41:4
36,46:21
36,47:7
36,48:21
36,52:23
36,53:21
36,56:7
36,57:4
36,58:17
36,63:23
36,64:7
36,68:12
37,1:4
37,2:4
37,3:4
37,4:9
37,5:4
37,6:9
37,7:9
37,11:12
37,12:12
37,14:17
37,18:4
37,19:4
37,20:9
37,21:9
37,22:17
37,23:9
37,24:4
37,25:21
37,28:6
37,30:4
37,31:21
37,33:6
37,41:4
37,46:21
37,47:7
37,48:21
37,52:23
37,53:21
37,56:7
37,57:4
37,58:17
37,63:23
37,64:7
37,68:12
38,1:11
38,2:11
38,3:11
38,4:16
38,5:11
38,6:16
38,7:16
38,8:7
38,10:6
38,11:19
38,12:19
38,13:3
38,14:24
38,16:6
38,17:7
38,18:11
38,19:11
38,20:16
38,21:16
38,22:24
38,23:16
38,24:11
38,25:28
38,26:7
38,27:7
38,28:13
38,30:11
38,31:28
38,32:7
38,33:13
38,34:7
38,36:7
38,37:7
38,41:11
38,46:28
38,47:14
38,48:28
38,52:30
38,53:28
38,56:14
38,57:11
38,58:24
38,59:3
38,60:7
38,61:7
38,63:30
38,64:14
38,67:7
38,68:19
38,70:3
39,1:11
39,2:11
39,3:11
39,4:16
39,5:11
39,6:16
39,7:16
39,8:7
39,10:6
39,11:19
39,12:19
39,13:3
39,14:24
39,16:6
39,17:7
39,18:11
39,19:11
39,20:16
39,21:16
39,22:24
39,23:16
39,24:11
39,25:28
39,26:7
39,27:7
39,28:13
39,30:11
39,31:28
39,32:7
39,33:13
39,34:7
39,36:7
39,37:7
39,41:11
39,46:28
39,47:14
39,48:28
39,52:30
39,53:28
39,56:14
39,57:11
39,58:24
39,59:3
39,60:7
39,61:7
39,63:30
39,64:14
39,67:7
39,68:19
39,70:3
40,1:11
40,2:11
40,3:11
40,4:16
40,5:11
40,6:16
40,7:16
40,8:7
40,10:6
40,11:19
40,12:19
40,13:3
40,14:24
40,16:6
40,17:7
40,18:11
40,19:11
40,20:16
40,21:16
40,22:24
40,23:16
40,24:11
40,25:28
40,26:7
40,27:7
40,28:13
40,30:11
40,31:28
40,32:7
40,33:13
40,34:7
40,36:7
40,37:7
40,41:11
40,46:28
40,47:14
40,48:28
40,52:30
40,53:28
40,56:14
40,57:11
40,58:24
40,59:3
40,60:7
40,61:7
40,63:30
40,64:14
40,67:7
40,68:19
40,70:3
41,4:5
41,6:5
41,7:5
41,11:8
41,12:8
41,14:13
41,20:5
41,21:5
41,22:13
41,23:5
41,25:17
41,28:2
41,31:17
41,33:2
41,46:17
41,47:3
41,48:17
41,52:19
41,53:17
41,56:3
41,58:13
41,63:19
41,64:3
41,68:8
42,1:11
42,2:11
42,3:11
42,4:16
42,5:11
42,6:16
42,7:16
42,8:7
42,10:6
42,11:19
42,12:19
42,13:3
42,14:24
42,16:6
42,17:7
42,18:11
42,19:11
42,20:16
42,21:16
42,22:24
42,23:16
42,24:11
42,25:28
42,26:7
42,27:7
42,28:13
42,30:11
42,31:28
42,32:7
42,33:13
42,34:7
42,36:7
42,37:7
42,41:11
42,46:28
42,47:14
42,48:28
42,52:30
42,53:28
42,56:14
42,57:11
42,58:24
42,59:3
42,60:7
42,61:7
42,63:30
42,64:14
42,67:7
42,68:19
42,70:3
43,1:11
43,2:11
43,3:11
43,4:16
43,5:11
43,6:16
43,7:16
43,8:7
43,10:6
43,11:19
43,12:19
43,13:3
43,14:24
43,16:6
43,17:7
43,18:11
43,19:11
43,20:16
43,21:16
43,22:24
43,23:16
43,24:11
43,25:28
43,26:7
43,27:7
43,28:13
43,30:11
43,31:28
43,32:7
43,33:13
43,34:7
43,36:7
43,37:7
43,41:11
43,46:28
43,47:14
43,48:28
43,52:30
43,53:28
43,56:14
43,57:11
43,58:24
43,59:3
43,60:7
43,61:7
43,63:30
43,64:14
43,67:7
43,68:19
43,70:3
44,1:11
44,2:11
44,3:11
44,4:16
44,5:11
44,6:16
44,7:16
44,8:7
44,10:6
44,11:19
44,12:19
44,13:3
44,14:24
44,16:6
44,17:7
44,18:11
44,19:11
44,20:16
44,21:16
44,22:24
44,23:16
44,24:11
44,25:28
44,26:7
44,27:7
44,28:13
44,30:11
44,31:28
44,32:7
44,33:13
44,34:7
44,36:7
44,37:7
44,41:11
44,48:28
44,52:30
44,53:28
44,56:14
44,57:11
44,58:24
44,59:3
44,60:7
44,61:7
44,63:30
44,64:14
44,67:7
44,68:19
44,70:3
45,1:11
45,2:11
45,3:11
45,4:16
45,5:11
45,6:16
45,7:16
45,8:7
45,10:6
45,11:19
45,12:19
45,13:3
45,14:24
45,16:6
45,17:7
45,18:11
45,19:11
45,20:16
45,21:16
45,22:24
45,23:16
45,24:11
45,25:28
45,26:7
45,27:7
45,28:13
45,30:11
45,31:28
45,32:7
45,33:13
45,34:7
45,36:7
45,37:7
45,41:11
45,48:28
45,52:30
45,53:28
45,56:14
45,57:11
45,58:24
45,59:3
45,60:7
45,61:7
45,63:30
45,64:14
45,67:7
45,68:19
45,70:3
46,52:2
46,63:2
47,4:2
47,6:2
47,7:2
47,11:5
47,12:5
47,14:10
47,20:2
47,21:2
47,22:10
47,23:2
47,25:14
47,31:14
47,46:14
47,48:14
47,52:16
47,53:14
47,58:10
47,63:16
47,68:5
48,52:2
48,63:2
49,1:14
49,2:14
49,3:14
49,4:19
49,5:14
49,6:19
49,7:19
49,8:10
49,10:9
49,11:22
49,12:22
49,13:6
49,14:27
49,16:9
49,17:10
49,18:14
49,19:14
49,20:19
49,21:19
49,22:27
49,23:19
49,24:14
49,25:31
49,26:10
49,27:10
49,28:16
49,29:3
49,30:14
49,31:31
49,32:10
49,33:16
49,34:10
49,35:3
49,36:10
49,37:10
49,38:3
49,39:3
49,40:3
49,41:14
49,42:3
49,43:3
49,44:3
49,45:3
49,46:31
49,47:17
49,48:31
49,51:3
49,52:33
49,53:31
49,55:3
49,56:17
49,57:14
49,58:27
49,59:6
49,60:10
49,61:10
49,62:3
49,63:33
49,64:17
49,65:3
49,66:3
49,67:10
49,68:22
49,70:6
50,1:11
50,2:11
50,3:11
50,4:16
50,5:11
50,6:16
50,7:16
50,8:7
50,10:6
50,11:19
50,12:19
50,13:3
50,14:24
50,16:6
50,17:7
50,18:11
50,19:11
50,20:16
50,21:16
50,22:24
50,23:16
50,24:11
50,25:28
50,26:7
50,27:7
50,28:13
50,30:11
50,31:28
50,32:7
50,33:13
50,34:7
50,36:7
50,37:7
50,41:11
50,46:28
50,47:14
50,48:28
50,52:30
50,53:28
50,56:14
50,57:11
50,58:24
50,59:3
50,60:7
50,61:7
50,63:30
50,64:14
50,67:7
50,68:19
50,70:3
51,1:11
51,2:11
51,3:11
51,4:16
51,5:11
51,6:16
51,7:16
51,8:7
51,10:6
51,11:19
51,12:19
51,13:3
51,14:24
51,16:6
51,17:7
51,18:11
51,19:11
51,20:16
51,21:16
51,22:24
51,23:16
51,24:11
51,25:28
51,26:7
51,27:7
51,28:13
51,30:11
51,31:28
51,32:7
51,33:13
51,34:7
51,36:7
51,37:7
51,41:11
51,46:28
51,47:14
51,48:28
51,53:28
51,56:14
51,57:11
51,58:24
51,59:3
51,60:7
51,61:7
51,63:30
51,64:14
51,67:7
51,68:19
51,70:3
53,52:2
53,63:2
54,1:14
54,2:14
54,3:14
54,4:19
54,5:14
54,6:19
54,7:19
54,8:10
54,10:9
54,11:22
54,12:22
54,13:6
54,14:27
54,16:9
54,17:10
54,18:14
54,19:14
54,20:19
54,21:19
54,22:27
54,23:19
54,24:14
54,25:31
54,26:10
54,27:10
54,28:16
54,29:3
54,30:14
54,31:31
54,32:10
54,33:16
54,34:10
54,35:3
54,36:10
54,37:10
54,38:3
54,39:3
54,40:3
54,41:14
54,42:3
54,43:3
54,44:3
54,45:3
54,46:31
54,47:17
54,48:31
54,50:3
54,51:3
54,52:33
54,53:31
54,56:17
54,57:14
54,58:27
54,59:6
54,60:10
54,61:10
54,62:3
54,63:33
54,64:17
54,65:3
54,66:3
54,67:10
54,68:22
54,70:6
55,1:11
55,2:11
55,3:11
55,4:16
55,5:11
55,6:16
55,7:16
55,8:7
55,10:6
55,11:19
55,12:19
55,13:3
55,14:24
55,16:6
55,17:7
55,18:11
55,19:11
55,20:16
55,21:16
55,22:24
55,23:16
55,24:11
55,25:28
55,26:7
55,27:7
55,28:13
55,30:11
55,31:28
55,32:7
55,33:13
55,34:7
55,36:7
55,37:7
55,41:11
55,46:28
55,47:14
55,48:28
55,52:30
55,53:28
55,56:14
55,57:11
55,58:24
55,59:3
55,60:7
55,61:7
55,63:30
55,64:14
55,67:7
55,68:19
55,70:3
56,4:2
56,6:2
56,7:2
56,11:5
56,12:5
56,14:10
56,20:2
56,21:2
56,22:10
56,23:2
56,25:14
56,31:14
56,46:14
56,48:14
56,52:16
56,53:14
56,58:10
56,63:16
56,68:5
57,4:5
57,6:5
57,7:5
57,11:8
57,12:8
57,14:13
57,20:5
57,21:5
57,22:13
57,23:5
57,25:17
57,28:2
57,31:17
57,33:2
57,46:17
57,47:3
57,48:17
57,52:19
57,53:17
57,56:3
57,63:19
57,64:3
57,68:8
58,25:4
58,31:4
58,46:4
58,48:4
58,52:6
58,53:4
58,63:6
59,1:8
59,2:8
59,3:8
59,4:13
59,5:8
59,6:13
59,7:13
59,8:4
59,10:3
59,11:16
59,12:16
59,14:21
59,16:3
59,17:4
59,18:8
59,19:8
59,20:13
59,21:13
59,22:21
59,23:13
59,24:8
59,25:25
59,26:4
59,27:4
59,28:10
59,30:8
59,31:25
59,32:4
59,33:10
59,34:4
59,36:4
59,37:4
59,41:8
59,46:25
59,47:11
59,48:25
59,52:27
59,53:25
59,56:11
59,57:8
59,58:21
59,61:4
59,63:27
59,64:11
59,67:4
59,68:16
60,1:4
60,2:4
60,3:4
60,4:9
60,5:4
60,6:9
60,7:9
60,11:12
60,12:12
60,14:17
60,18:4
60,19:4
60,20:9
60,21:9
60,22:17
60,23:9
60,24:4
60,25:21
60,28:6
60,30:4
60,31:21
60,33:6
60,41:4
60,46:21
60,47:7
60,48:21
60,52:23
60,53:21
60,56:7
60,57:4
60,58:17
60,63:23
60,64:7
60,68:12
61,1:4
61,2:4
61,3:4
61,4:9
61,5:4
61,6:9
61,7:9
61,11:12
61,12:12
61,14:17
61,18:4
61,19:4
61,20:9
61,21:9
61,22:17
61,23:9
61,24:4
61,25:21
61,28:6
61,30:4
61,31:21
61,33:6
61,41:4
61,46:21
61,47:7
61,48:21
61,52:23
61,53:21
61,56:7
61,57:4
61,58:17
61,63:23
61,64:7
61,68:12
62,1:11
62,2:11
62,3:11
62,4:16
62,5:11
62,6:16
62,7:16
62,8:7
62,10:6
62,11:19
62,12:19
62,13:3
62,14:24
62,16:6
62,17:7
62,18:11
62,19:11
62,20:16
62,21:16
62,22:24
62,23:16
62,24:11
62,25:28
62,26:7
62,27:7
62,28:13
62,30:11
62,31:28
62,32:7
62,33:13
62,34:7
62,36:7
62,37:7
62,41:11
62,46:28
62,47:14
62,48:28
62,52:30
62,53:28
62,56:14
62,57:11
62,58:24
62,59:3
62,60:7
62,61:7
62,68:19
62,70:3
64,4:2
64,6:2
64,7:2
64,11:5
64,12:5
64,14:10
64,20:2
64,21:2
64,22:10
64,23:2
64,25:14
64,31:14
64,46:14
64,48:14
64,52:16
64,53:14
64,58:10
64,63:16
64,68:5
65,1:11
65,2:11
65,3:11
65,4:16
65,5:11
65,6:16
65,7:16
65,8:7
65,10:6
65,11:19
65,12:19
65,13:3
65,14:24
65,16:6
65,17:7
65,18:11
65,19:11
65,20:16
65,21:16
65,22:24
65,23:16
65,24:11
65,25:28
65,26:7
65,27:7
65,28:13
65,30:11
65,31:28
65,32:7
65,33:13
65,34:7
65,36:7
65,37:7
65,41:11
65,46:28
65,47:14
65,48:28
65,52:30
65,53:28
65,56:14
65,57:11
65,58:24
65,59:3
65,60:7
65,61:7
65,63:30
65,64:14
65,67:7
65,68:19
65,70:3
66,1:11
66,2:11
66,3:11
66,4:16
66,5:11
66,6:16
66,7:16
66,8:7
66,10:6
66,11:19
66,12:19
66,13:3
66,14:24
66,16:6
66,17:7
66,18:11
66,19:11
66,20:16
66,21:16
66,22:24
66,23:16
66,24:11
66,25:28
66,26:7
66,27:7
66,28:13
66,30:11
66,31:28
66,32:7
66,33:13
66,34:7
66,36:7
66,37:7
66,41:11
66,46:28
66,47:14
66,48:28
66,52:30
66,53:28
66,56:14
66,57:11
66,58:24
66,59:3
66,60:7
66,61:7
66,63:30
66,64:14
66,67:7
66,68:19
66,70:3
67,1:4
67,2:4
67,3:4
67,4:9
67,5:4
67,6:9
67,7:9
67,11:12
67,12:12
67,14:17
67,18:4
67,19:4
67,20:9
67,21:9
67,22:17
67,23:9
67,24:4
67,25:21
67,28:6
67,30:4
67,31:21
67,33:6
67,41:4
67,46:21
67,47:7
67,48:21
67,52:23
67,53:21
67,56:7
67,57:4
67,58:17
67,63:23
67,64:7
67,68:12
68,14:5
68,22:5
68,25:9
68,31:9
68,46:9
68,48:9
68,52:11
68,53:9
68,58:5
68,63:11
69,1:15
69,2:15
69,3:15
69,4:20
69,5:15
69,6:20
69,7:20
69,8:11
69,10:10
69,11:23
69,12:23
69,13:7
69,14:28
69,16:10
69,17:11
69,18:15
69,19:15
69,20:20
69,21:20
69,22:28
69,23:20
69,24:15
69,25:32
69,26:11
69,27:11
69,28:17
69,29:4
69,30:15
69,31:32
69,32:11
69,33:17
69,34:11
69,35:4
69,36:11
69,37:11
69,38:4
69,39:4
69,40:4
69,41:15
69,42:4
69,43:4
69,44:4
69,45:4
69,46:32
69,47:18
69,48:32
69,49:1
69,50:4
69,51:4
69,52:34
69,53:32
69,54:1
69,55:4
69,56:18
69,57:15
69,58:28
69,59:7
69,60:11
69,61:11
69,62:4
69,63:34
69,64:18
69,65:4
69,66:4
69,67:11
69,68:23
69,70:7
70,1:8
70,2:8
70,3:8
70,4:13
70,5:8
70,6:13
70,7:13
70,8:4
70,10:3
70,11:16
70,12:16
70,14:21
70,16:3
70,17:4
70,18:8
70,19:8
70,20:13
70,21:13
70,22:21
70,23:13
70,24:8
70,25:25
70,26:4
70,27:4
70,28:10
70,30:8
70,31:25
70,32:4
70,33:10
70,34:4
70,36:4
70,37:4
70,41:8
70,46:25
70,47:11
70,48:25
70,52:27
70,53:25
70,56:11
70,57:8
70,58:21
70,60:4
70,61:4
70,63:27
70,64:11
70,67:4
70,68:16

<end>

<optimal SALBP-1 value>
20


<rand seed>
467321153

<Lower Bounds>
Lm1=19
Lms1=19
Lm2=9
Lm3=14
Lm4=19
Best=19

<Optimal Stations (Iterations: 10)>
26
